
630.0
630.0
630.0
630.0
630.0
630.0
630.0
1140.0
630.0
630.0
630.0
990.0
630.0
630.0
630.0
630.0
630.0
630.0
630.0
630.0
630.0
630.0
630.0
630.0
630.0
630.0
630.0
630.0
630.0
630.0
630.0
960.0
630.0
630.0
1020.0
630.0
630.0
630.0
630.0
630.0
630.0
630.0
630.0
630.0
630.0
630.0
630.0
630.0
630.0
630.0